MLT04
Position Depot: Random
Horizon for Depot: Large
Position of customers: Mixt
Distribution of the demand: Large
Width of time windows: Tight
Distribution of the service: Small

VEHICLE 
NUMBER 	 CAPACITY 
 5 	 	 962 
 
CUSTOMER
CUST NO. 	 XCOORD.  	 YCOORD. 	 DEMAND 	 READY TIME 	 DUE DATE 	 SERVICE TIME 
 0 	 	 735 	 	 216 	 	 0 	 	 0 	 	 4027 	 	 0 
  1 	 	 157 	 	 710 	 	 9 	 	 2346 	 	 2426 	 	 66 
  2 	 	 942 	 	 662 	 	 9 	 	 3828 	 	 3985 	 	 53 
  3 	 	 361 	 	 471 	 	 31 	 	 826 	 	 989 	 	 93 
  4 	 	 346 	 	 504 	 	 51 	 	 2449 	 	 2571 	 	 55 
  5 	 	 81 	 	 638 	 	 17 	 	 2921 	 	 2995 	 	 66 
  6 	 	 340 	 	 437 	 	 75 	 	 1461 	 	 1643 	 	 79 
  7 	 	 968 	 	 626 	 	 22 	 	 3866 	 	 4027 	 	 58 
  8 	 	 50 	 	 604 	 	 18 	 	 704 	 	 865 	 	 75 
  9 	 	 83 	 	 770 	 	 71 	 	 766 	 	 941 	 	 52 
  10 	 	 875 	 	 671 	 	 71 	 	 672 	 	 734 	 	 59 
  11 	 	 156 	 	 626 	 	 50 	 	 1686 	 	 1795 	 	 80 
  12 	 	 156 	 	 708 	 	 28 	 	 1680 	 	 1739 	 	 91 
  13 	 	 344 	 	 467 	 	 42 	 	 2219 	 	 2361 	 	 79 
  14 	 	 368 	 	 442 	 	 78 	 	 2972 	 	 3085 	 	 59 
  15 	 	 201 	 	 657 	 	 79 	 	 664 	 	 761 	 	 52 
  16 	 	 151 	 	 726 	 	 63 	 	 1187 	 	 1243 	 	 53 
  17 	 	 386 	 	 588 	 	 52 	 	 3795 	 	 3973 	 	 69 
  18 	 	 224 	 	 688 	 	 34 	 	 692 	 	 765 	 	 55 
  19 	 	 924 	 	 686 	 	 74 	 	 1109 	 	 1245 	 	 57 
  20 	 	 111 	 	 701 	 	 3 	 	 3344 	 	 3489 	 	 58 
  21 	 	 934 	 	 657 	 	 81 	 	 3164 	 	 3285 	 	 64 
  22 	 	 948 	 	 635 	 	 44 	 	 1325 	 	 1497 	 	 67 
  23 	 	 112 	 	 655 	 	 54 	 	 659 	 	 838 	 	 78 
  24 	 	 81 	 	 722 	 	 18 	 	 1600 	 	 1771 	 	 67 
  25 	 	 350 	 	 344 	 	 33 	 	 978 	 	 1046 	 	 62 
  26 	 	 845 	 	 612 	 	 98 	 	 731 	 	 817 	 	 100 
  27 	 	 349 	 	 498 	 	 58 	 	 1865 	 	 1918 	 	 69 
  28 	 	 959 	 	 731 	 	 44 	 	 3503 	 	 3642 	 	 87 
  29 	 	 323 	 	 476 	 	 94 	 	 2438 	 	 2526 	 	 92 
  30 	 	 930 	 	 727 	 	 12 	 	 1843 	 	 1927 	 	 87 
  31 	 	 72 	 	 641 	 	 61 	 	 1871 	 	 1928 	 	 94 
  32 	 	 338 	 	 543 	 	 49 	 	 430 	 	 565 	 	 51 
  33 	 	 167 	 	 692 	 	 70 	 	 1766 	 	 1874 	 	 82 
  34 	 	 393 	 	 508 	 	 37 	 	 1944 	 	 2125 	 	 75 
  35 	 	 880 	 	 646 	 	 12 	 	 3190 	 	 3366 	 	 97 
  36 	 	 877 	 	 731 	 	 32 	 	 2618 	 	 2758 	 	 95 
  37 	 	 360 	 	 454 	 	 83 	 	 425 	 	 488 	 	 51 
  38 	 	 978 	 	 623 	 	 91 	 	 2595 	 	 2704 	 	 58 
  39 	 	 286 	 	 504 	 	 22 	 	 420 	 	 586 	 	 91 
  40 	 	 158 	 	 759 	 	 98 	 	 1495 	 	 1653 	 	 83 
  41 	 	 158 	 	 692 	 	 3 	 	 685 	 	 822 	 	 53 
  42 	 	 11 	 	 665 	 	 26 	 	 2693 	 	 2806 	 	 68 
  43 	 	 375 	 	 443 	 	 97 	 	 3190 	 	 3339 	 	 97 
  44 	 	 356 	 	 506 	 	 37 	 	 1005 	 	 1129 	 	 83 
  45 	 	 591 	 	 473 	 	 85 	 	 1849 	 	 2000 	 	 78 
  46 	 	 968 	 	 687 	 	 2 	 	 2818 	 	 2916 	 	 74 
  47 	 	 940 	 	 635 	 	 100 	 	 1161 	 	 1257 	 	 61 
  48 	 	 109 	 	 725 	 	 100 	 	 887 	 	 1030 	 	 68 
  49 	 	 935 	 	 567 	 	 88 	 	 3210 	 	 3314 	 	 68 
  50 	 	 958 	 	 638 	 	 84 	 	 3203 	 	 3388 	 	 66 
  51 	 	 501 	 	 457 	 	 1 	 	 2353 	 	 2458 	 	 97 
  52 	 	 67 	 	 331 	 	 46 	 	 2953 	 	 3023 	 	 62 
  53 	 	 226 	 	 925 	 	 55 	 	 888 	 	 960 	 	 65 
  54 	 	 978 	 	 206 	 	 79 	 	 75 	 	 267 	 	 60 
  55 	 	 678 	 	 628 	 	 3 	 	 3874 	 	 4027 	 	 51 
  56 	 	 253 	 	 890 	 	 35 	 	 3591 	 	 3768 	 	 65 
  57 	 	 302 	 	 54 	 	 49 	 	 3208 	 	 3263 	 	 76 
  58 	 	 147 	 	 332 	 	 50 	 	 1566 	 	 1631 	 	 81 
  59 	 	 412 	 	 693 	 	 33 	 	 2245 	 	 2426 	 	 55 
  60 	 	 334 	 	 532 	 	 100 	 	 1178 	 	 1234 	 	 74 
  61 	 	 134 	 	 509 	 	 10 	 	 2515 	 	 2673 	 	 98 
  62 	 	 927 	 	 692 	 	 88 	 	 3697 	 	 3797 	 	 62 
  63 	 	 840 	 	 292 	 	 74 	 	 2071 	 	 2258 	 	 91 
  64 	 	 99 	 	 318 	 	 99 	 	 513 	 	 708 	 	 73 
  65 	 	 549 	 	 70 	 	 1 	 	 1199 	 	 1258 	 	 66 
  66 	 	 301 	 	 833 	 	 74 	 	 1382 	 	 1560 	 	 89 
  67 	 	 174 	 	 291 	 	 56 	 	 3151 	 	 3273 	 	 78 
  68 	 	 940 	 	 522 	 	 86 	 	 3215 	 	 3290 	 	 87 
  69 	 	 265 	 	 355 	 	 91 	 	 817 	 	 1016 	 	 89 
  70 	 	 797 	 	 646 	 	 96 	 	 3198 	 	 3351 	 	 82 
  71 	 	 105 	 	 852 	 	 50 	 	 899 	 	 984 	 	 64 
  72 	 	 642 	 	 907 	 	 47 	 	 628 	 	 766 	 	 56 
  73 	 	 401 	 	 258 	 	 2 	 	 1708 	 	 1902 	 	 100 
  74 	 	 4 	 	 467 	 	 86 	 	 872 	 	 1054 	 	 71 
  75 	 	 883 	 	 338 	 	 36 	 	 1293 	 	 1355 	 	 98 
  76 	 	 435 	 	 408 	 	 84 	 	 3521 	 	 3663 	 	 65 
  77 	 	 336 	 	 424 	 	 13 	 	 1772 	 	 1942 	 	 98 
  78 	 	 820 	 	 252 	 	 74 	 	 3548 	 	 3652 	 	 54 
  79 	 	 224 	 	 25 	 	 63 	 	 640 	 	 800 	 	 92 
  80 	 	 539 	 	 445 	 	 31 	 	 2826 	 	 2944 	 	 67 
  81 	 	 37 	 	 296 	 	 6 	 	 3485 	 	 3664 	 	 88 
  82 	 	 377 	 	 382 	 	 94 	 	 2155 	 	 2309 	 	 100 
  83 	 	 877 	 	 18 	 	 48 	 	 2424 	 	 2598 	 	 97 
  84 	 	 542 	 	 526 	 	 23 	 	 2795 	 	 2942 	 	 95 
  85 	 	 278 	 	 490 	 	 70 	 	 867 	 	 960 	 	 74 
  86 	 	 582 	 	 426 	 	 3 	 	 2824 	 	 2916 	 	 59 
  87 	 	 962 	 	 580 	 	 11 	 	 2052 	 	 2153 	 	 79 
  88 	 	 728 	 	 344 	 	 95 	 	 3003 	 	 3104 	 	 61 
  89 	 	 325 	 	 121 	 	 38 	 	 1731 	 	 1898 	 	 75 
  90 	 	 12 	 	 640 	 	 1 	 	 742 	 	 936 	 	 88 
  91 	 	 467 	 	 801 	 	 24 	 	 3389 	 	 3564 	 	 50 
  92 	 	 970 	 	 865 	 	 32 	 	 3834 	 	 4027 	 	 84 
  93 	 	 841 	 	 193 	 	 33 	 	 3535 	 	 3615 	 	 64 
  94 	 	 27 	 	 401 	 	 54 	 	 2065 	 	 2230 	 	 73 
  95 	 	 759 	 	 650 	 	 78 	 	 3722 	 	 3776 	 	 66 
  96 	 	 547 	 	 415 	 	 86 	 	 1654 	 	 1783 	 	 97 
  97 	 	 874 	 	 380 	 	 13 	 	 3130 	 	 3225 	 	 55 
  98 	 	 99 	 	 146 	 	 47 	 	 694 	 	 867 	 	 93 
  99 	 	 414 	 	 663 	 	 27 	 	 2466 	 	 2575 	 	 54 
  100 	 	 800 	 	 988 	 	 75 	 	 1276 	 	 1405 	 	 65 
 